NAME: CMT2_7
TYPE: CVRP
COMMENT: 835.26 - Cluster Nr.7
DIMENSION: 8
CAPACITY: 140
EDGE_WEIGHT_TYPE: EUC_2D
NODE_COORD_TYPE: TWOD_COORDS
NODE_COORD_SECTION: 
1 55 45
2 55 34
5 50 40
6 62 35
4 51 42
7 54 38
3 50 30
8 40 40
DEPOT_SECTION: 
8
-1
DEMAND_SECTION: 
4 27
6 12
7 19
8 0
5 19
3 21
2 17
1 16
EOF
